(set-info :smt-lib-version 2.6)
(set-option :produce-assignments true)
(set-logic BPA)
(set-info :source | Kaya Guvendi and Ethan Bogle |)
(set-info :category "crafted")
(set-info :status sat)
(declare-const arr Pointer)
(declare-const i0 Pointer)
(declare-const i1 Pointer)
(declare-const i2 Pointer)
(declare-const i3 Pointer)
(declare-const i4 Pointer)
(declare-const i5 Pointer)
(declare-const i6 Pointer)
(declare-const i7 Pointer)
(declare-const i8 Pointer)
(declare-const i9 Pointer)
(declare-const i10 Pointer)
(declare-const i11 Pointer)
(declare-const i12 Pointer)
(declare-const i13 Pointer)
(declare-const i14 Pointer)
(declare-const i15 Pointer)
(declare-const i16 Pointer)
(declare-const i17 Pointer)
(declare-const i18 Pointer)
(declare-const i19 Pointer)
(declare-const i20 Pointer)
(declare-const i21 Pointer)
(declare-const i22 Pointer)
(declare-const i23 Pointer)
(declare-const i24 Pointer)
(declare-const i25 Pointer)
(declare-const i26 Pointer)
(declare-const i27 Pointer)
(declare-const i28 Pointer)
(declare-const i29 Pointer)
(declare-const i30 Pointer)
(declare-const i31 Pointer)
(declare-const i32 Pointer)
(declare-const i33 Pointer)
(declare-const i34 Pointer)
(declare-const i35 Pointer)
(declare-const i36 Pointer)
(declare-const i37 Pointer)
(declare-const i38 Pointer)
(declare-const i39 Pointer)
(declare-const i40 Pointer)
(declare-const i41 Pointer)
(declare-const i42 Pointer)
(declare-const i43 Pointer)
(declare-const i44 Pointer)
(declare-const i45 Pointer)
(declare-const i46 Pointer)
(declare-const i47 Pointer)
(declare-const i48 Pointer)
(declare-const i49 Pointer)
(declare-const i50 Pointer)
(declare-const i51 Pointer)
(declare-const i52 Pointer)
(declare-const i53 Pointer)
(declare-const i54 Pointer)
(declare-const i55 Pointer)
(declare-const i56 Pointer)
(declare-const i57 Pointer)
(declare-const i58 Pointer)
(declare-const i59 Pointer)
(declare-const i60 Pointer)
(declare-const i61 Pointer)
(declare-const i62 Pointer)
(declare-const i63 Pointer)
(declare-const i64 Pointer)
(declare-const i65 Pointer)
(declare-const i66 Pointer)
(declare-const i67 Pointer)
(declare-const i68 Pointer)
(declare-const i69 Pointer)
(declare-const i70 Pointer)
(declare-const i71 Pointer)
(declare-const i72 Pointer)
(declare-const i73 Pointer)
(declare-const i74 Pointer)
(declare-const i75 Pointer)
(declare-const i76 Pointer)
(declare-const i77 Pointer)
(declare-const i78 Pointer)
(declare-const i79 Pointer)
(declare-const i80 Pointer)
(declare-const i81 Pointer)
(declare-const i82 Pointer)
(declare-const i83 Pointer)
(declare-const i84 Pointer)
(declare-const i85 Pointer)
(declare-const i86 Pointer)
(declare-const i87 Pointer)
(declare-const i88 Pointer)
(declare-const i89 Pointer)
(declare-const i90 Pointer)
(declare-const i91 Pointer)
(declare-const i92 Pointer)
(declare-const i93 Pointer)
(declare-const i94 Pointer)
(declare-const i95 Pointer)
(declare-const i96 Pointer)
(declare-const i97 Pointer)
(declare-const i98 Pointer)
(declare-const i99 Pointer)
(declare-const i100 Pointer)
(assert (=p i0 arr))
(assert (=p i1 (+p i0 8)))
(assert (=p i2 (+p i1 8)))
(assert (=p i3 (+p i2 8)))
(assert (=p i4 (+p i3 8)))
(assert (=p i5 (+p i4 8)))
(assert (=p i6 (+p i5 8)))
(assert (=p i7 (+p i6 8)))
(assert (=p i8 (+p i7 8)))
(assert (=p i9 (+p i8 8)))
(assert (=p i10 (+p i9 8)))
(assert (=p i11 (+p i10 8)))
(assert (=p i12 (+p i11 8)))
(assert (=p i13 (+p i12 8)))
(assert (=p i14 (+p i13 8)))
(assert (=p i15 (+p i14 8)))
(assert (=p i16 (+p i15 8)))
(assert (=p i17 (+p i16 8)))
(assert (=p i18 (+p i17 8)))
(assert (=p i19 (+p i18 8)))
(assert (=p i20 (+p i19 8)))
(assert (=p i21 (+p i20 8)))
(assert (=p i22 (+p i21 8)))
(assert (=p i23 (+p i22 8)))
(assert (=p i24 (+p i23 8)))
(assert (=p i25 (+p i24 8)))
(assert (=p i26 (+p i25 8)))
(assert (=p i27 (+p i26 8)))
(assert (=p i28 (+p i27 8)))
(assert (=p i29 (+p i28 8)))
(assert (=p i30 (+p i29 8)))
(assert (=p i31 (+p i30 8)))
(assert (=p i32 (+p i31 8)))
(assert (=p i33 (+p i32 8)))
(assert (=p i34 (+p i33 8)))
(assert (=p i35 (+p i34 8)))
(assert (=p i36 (+p i35 8)))
(assert (=p i37 (+p i36 8)))
(assert (=p i38 (+p i37 8)))
(assert (=p i39 (+p i38 8)))
(assert (=p i40 (+p i39 8)))
(assert (=p i41 (+p i40 8)))
(assert (=p i42 (+p i41 8)))
(assert (=p i43 (+p i42 8)))
(assert (=p i44 (+p i43 8)))
(assert (=p i45 (+p i44 8)))
(assert (=p i46 (+p i45 8)))
(assert (=p i47 (+p i46 8)))
(assert (=p i48 (+p i47 8)))
(assert (=p i49 (+p i48 8)))
(assert (=p i50 (+p i49 8)))
(assert (=p i51 (+p i50 8)))
(assert (=p i52 (+p i51 8)))
(assert (=p i53 (+p i52 8)))
(assert (=p i54 (+p i53 8)))
(assert (=p i55 (+p i54 8)))
(assert (=p i56 (+p i55 8)))
(assert (=p i57 (+p i56 8)))
(assert (=p i58 (+p i57 8)))
(assert (=p i59 (+p i58 8)))
(assert (=p i60 (+p i59 8)))
(assert (=p i61 (+p i60 8)))
(assert (=p i62 (+p i61 8)))
(assert (=p i63 (+p i62 8)))
(assert (=p i64 (+p i63 8)))
(assert (=p i65 (+p i64 8)))
(assert (=p i66 (+p i65 8)))
(assert (=p i67 (+p i66 8)))
(assert (=p i68 (+p i67 8)))
(assert (=p i69 (+p i68 8)))
(assert (=p i70 (+p i69 8)))
(assert (=p i71 (+p i70 8)))
(assert (=p i72 (+p i71 8)))
(assert (=p i73 (+p i72 8)))
(assert (=p i74 (+p i73 8)))
(assert (=p i75 (+p i74 8)))
(assert (=p i76 (+p i75 8)))
(assert (=p i77 (+p i76 8)))
(assert (=p i78 (+p i77 8)))
(assert (=p i79 (+p i78 8)))
(assert (=p i80 (+p i79 8)))
(assert (=p i81 (+p i80 8)))
(assert (=p i82 (+p i81 8)))
(assert (=p i83 (+p i82 8)))
(assert (=p i84 (+p i83 8)))
(assert (=p i85 (+p i84 8)))
(assert (=p i86 (+p i85 8)))
(assert (=p i87 (+p i86 8)))
(assert (=p i88 (+p i87 8)))
(assert (=p i89 (+p i88 8)))
(assert (=p i90 (+p i89 8)))
(assert (=p i91 (+p i90 8)))
(assert (=p i92 (+p i91 8)))
(assert (=p i93 (+p i92 8)))
(assert (=p i94 (+p i93 8)))
(assert (=p i95 (+p i94 8)))
(assert (=p i96 (+p i95 8)))
(assert (=p i97 (+p i96 8)))
(assert (=p i98 (+p i97 8)))
(assert (=p i99 (+p i98 8)))
(assert (=p i100 (+p i99 8)))
(assert (not (and (<=p i0 (+p arr 59)) (<=p i1 (+p arr 59)) (<=p i2 (+p arr 59)) (<=p i3 (+p arr 59)) (<=p i4 (+p arr 59)) (<=p i5 (+p arr 59)) (<=p i6 (+p arr 59)) (<=p i7 (+p arr 59)) (<=p i8 (+p arr 59)) (<=p i9 (+p arr 59)) (<=p i10 (+p arr 59)) (<=p i11 (+p arr 59)) (<=p i12 (+p arr 59)) (<=p i13 (+p arr 59)) (<=p i14 (+p arr 59)) (<=p i15 (+p arr 59)) (<=p i16 (+p arr 59)) (<=p i17 (+p arr 59)) (<=p i18 (+p arr 59)) (<=p i19 (+p arr 59)) (<=p i20 (+p arr 59)) (<=p i21 (+p arr 59)) (<=p i22 (+p arr 59)) (<=p i23 (+p arr 59)) (<=p i24 (+p arr 59)) (<=p i25 (+p arr 59)) (<=p i26 (+p arr 59)) (<=p i27 (+p arr 59)) (<=p i28 (+p arr 59)) (<=p i29 (+p arr 59)) (<=p i30 (+p arr 59)) (<=p i31 (+p arr 59)) (<=p i32 (+p arr 59)) (<=p i33 (+p arr 59)) (<=p i34 (+p arr 59)) (<=p i35 (+p arr 59)) (<=p i36 (+p arr 59)) (<=p i37 (+p arr 59)) (<=p i38 (+p arr 59)) (<=p i39 (+p arr 59)) (<=p i40 (+p arr 59)) (<=p i41 (+p arr 59)) (<=p i42 (+p arr 59)) (<=p i43 (+p arr 59)) (<=p i44 (+p arr 59)) (<=p i45 (+p arr 59)) (<=p i46 (+p arr 59)) (<=p i47 (+p arr 59)) (<=p i48 (+p arr 59)) (<=p i49 (+p arr 59)) (<=p i50 (+p arr 59)) (<=p i51 (+p arr 59)) (<=p i52 (+p arr 59)) (<=p i53 (+p arr 59)) (<=p i54 (+p arr 59)) (<=p i55 (+p arr 59)) (<=p i56 (+p arr 59)) (<=p i57 (+p arr 59)) (<=p i58 (+p arr 59)) (<=p i59 (+p arr 59)))))
(check-sat)
(get-model)
(exit)